ATOMIC_SPECIES
Mg 1 Mg_ONCV_PBE-1.0.upf
Al 1 Al_ONCV_PBE-1.0.upf
Cu 1 Cu_ONCV_PBE-1.0.upf

LATTICE_CONSTANT
1.8897261246257702

LATTICE_VECTORS
6.760507106781006 0.0 0.0 
0.027137629687786102 10.994750022888184 0.0 
0.10223301500082016 -0.23106980323791504 12.737065315246582 

ATOMIC_POSITIONS
Cartesian    # Cartesian(Unit is LATTICE_CONSTANT)
Mg
0.0
1
4.525040149689 1.745689988136 2.236799955368 1 1 1
Al
0.0
20
5.767210006714 9.607040405273 7.868130207062 1 1 1
0.558210015297 3.964999914169 2.223030090332 1 1 1
6.292150020599 8.213800430298 5.450019836426 1 1 1
5.053110122681 7.173009872437 2.973730087280 1 1 1
2.207040071487 0.190300002694 3.326920032501 1 1 1
4.446839809418 2.441950082779 4.978740215302 1 1 1
2.122509956360 7.207429885864 5.230219841003 1 1 1
0.232050001621 4.004059791565 5.120689868927 1 1 1
2.791229963303 5.451310157776 2.885590076447 1 1 1
4.476679801941 9.791170120239 3.312230110168 1 1 1
0.550679981709 5.204060077667 7.529620170593 1 1 1
3.156980037689 5.935339927673 7.714409828186 1 1 1
2.986279964447 2.884340047836 7.755199909210 1 1 1
0.974749982357 8.743129730225 3.235330104828 1 1 1
1.528419971466 1.512320041656 5.576789855957 1 1 1
1.557940006256 9.908579826355 6.366769790649 1 1 1
5.392419815063 1.452370047569 7.510139942169 1 1 1
4.788680076599 5.979629993439 5.351809978485 1 1 1
3.829849958420 -0.078649997711 5.867239952087 1 1 1
1.122679948807 7.749370098114 7.840879917145 1 1 1
Cu
0.0
11
2.585230112076 4.616839885712 5.552309989929 1 1 1
2.388520002365 3.014270067215 3.706660032272 1 1 1
5.001090049744 4.094439983368 6.963399887085 1 1 1
0.511129975319 6.238009929657 3.602740049362 1 1 1
3.625439882278 8.498530387878 6.803110122681 1 1 1
6.601309776306 10.817600250244 2.552500009537 1 1 1
6.224629878998 -0.092849999666 5.225200176239 1 1 1
5.541580200195 7.089230060577 7.572460174561 1 1 1
5.134369850159 4.328410148621 3.401609897614 1 1 1
0.054549999535 2.080410003662 3.600409984589 1 1 1
0.574750006199 2.859369993210 7.379580020905 1 1 1
